NAME: Random_60_1
ELLAPSED_TIME_(ms): 390
TOUR_SIZE: 1109
TOUR_SECTION
0
58
39
9
26
29
37
40
54
5
56
17
1
23
52
14
19
21
12
20
11
16
31
47
4
13
22
41
3
7
57
51
53
48
59
27
44
49
38
42
25
55
50
36
18
43
32
8
34
10
2
33
30
24
15
45
28
35
6
46
0
EOF
